************************************************************************
file with basedata            : md257_.bas
initial value random generator: 13433
************************************************************************
projects                      :  1
jobs (incl. supersource/sink ):  20
horizon                       :  124
RESOURCES
  - renewable                 :  2   R
  - nonrenewable              :  2   N
  - doubly constrained        :  0   D
************************************************************************
PROJECT INFORMATION:
pronr.  #jobs rel.date duedate tardcost  MPM-Time
    1     18      0       26        0       26
************************************************************************
PRECEDENCE RELATIONS:
jobnr.    #modes  #successors   successors
   1        1          3           2   3   4
   2        3          3           5   6   7
   3        3          3           6   8   9
   4        3          1           6
   5        3          3           8  14  17
   6        3          3          13  14  15
   7        3          3          10  12  17
   8        3          2          11  15
   9        3          3          15  17  19
  10        3          2          13  14
  11        3          1          12
  12        3          2          13  18
  13        3          1          16
  14        3          1          18
  15        3          1          18
  16        3          1          19
  17        3          1          20
  18        3          1          20
  19        3          1          20
  20        1          0        
************************************************************************
REQUESTS/DURATIONS:
jobnr. mode duration  R 1  R 2  N 1  N 2   N 3  N 4  N 5  N 6
------------------------------------------------------------------------
  1      1     0       0    0    0    0     0    0    0    0
  2      1     3       1    0    0    5     2    0    3    0
         2     3       2    0    0    4     0    2    3    0
         3     5       0    3    0    2     2    0    0    4
  3      1     5       7    0    0    5     0    0    3    2
         2     8       0    2    5    0     1    0    4    0
         3    10       3    0    0    2     0    4    3    0
  4      1     1       6    0    0   10     1    4    0    0
         2     8       0    3    7    0     0    2    3    0
         3    10       0    3    0   10     2    0    3    0
  5      1     6       8    0    8    0     0    5    3    0
         2     9       0    7    0    3     2    0    0    4
         3    10       8    0    0    3     0    0    3    4
  6      1     1       0    8    8    0     3    0    3    0
         2     3       3    0    0    5     0    3    3    0
         3     7       1    0    0    1     1    0    3    0
  7      1     1       3    0    8    0     0    4    3    0
         2     5       0    5    8    0     0    0    3    4
         3     9       0    2    0    2     2    0    0    3
  8      1     1       0    8    4    0     0    4    3    0
         2     2       8    0    4    0     0    4    0    2
         3     6       0    8    3    0     2    0    3    0
  9      1     1       7    0    0    5     4    0    2    0
         2     1       7    0    9    0     2    0    0    3
         3    10       7    0    1    0     0    2    3    0
 10      1     3       2    0    0    7     0    0    3    5
         2     7       2    0    0    2     2    4    0    0
         3     9       0    4    8    0     2    0    0    4
 11      1     3       4    0    1    0     0    2    3    0
         2     8       3    0    0    5     2    0    3    0
         3    10       3    0    1    0     4    2    0    0
 12      1     1       4    0    7    0     0    2    3    0
         2     5       2    0    4    0     2    0    0    4
         3     5       0    7    1    0     0    3    3    0
 13      1     1       0    6    0   10     0    4    3    0
         2     2       0    2    9    0     4    0    3    0
         3     7       4    0    0    6     0    3    0    3
 14      1     3       0    5    0    9     0    2    3    0
         2     9       0    5    2    0     0    0    3    4
         3    10       7    0    0    8     3    0    3    0
 15      1     5       4    0    0   10     2    4    0    0
         2     6       0    8    0    8     0    4    3    0
         3    10       0    7    0    6     2    0    0    4
 16      1     1       0    8    7    0     3    0    3    0
         2     3       0    7    0    1     0    3    3    0
         3     8       0    7    6    0     0    0    3    5
 17      1     9       0    5    4    0     4    4    0    0
         2     9       1    0    4    0     0    5    3    0
         3     9       0    5    0    3     2    0    3    0
 18      1     1       0    7    9    0     0    0    3    5
         2     2       7    0    5    0     2    0    0    4
         3     4       0    7    2    0     4    0    2    0
 19      1     2       0    6    7    0     0    5    3    0
         2     8       0    6    0    5     0    2    3    0
         3    10       0    5    7    0     2    0    3    0
 20      1     0       0    0    0    0     0    0    0    0
************************************************************************
RESOURCEAVAILABILITIES:
  R 1  R 2  N 1  N 2
   18   15   25   26
************************************************************************
